data/solutions/recovery/wellformed/moderate/binding/wellformed_moderate_instance89/22.sol
Elapsed time: 0.02
Upper bound: 10427.0
Planning weighted value: 588661.0
C[0]=10427.0
C[1]=10187.0
C[2]=8357.0
C[3]=7703.0
C[4]=5898.0
C[5]=791.0
y[0]=1
y[1]=2
y[2]=0
y[3]=4
y[4]=3
y[5]=0
y[6]=4
y[7]=1
y[8]=0
y[9]=0
y[10]=3
y[11]=3
y[12]=3
y[13]=2
y[14]=5
y[15]=1
y[16]=3
y[17]=0
y[18]=1
y[19]=2
y[20]=4
y[21]=2
y[22]=3
y[23]=1
y[24]=1
y[25]=0
y[26]=1
y[27]=3
y[28]=2
y[29]=4
y[30]=3
y[31]=1
y[32]=2
y[33]=0
y[34]=2
y[35]=0
y[36]=0
y[37]=2
y[38]=0
y[39]=2
y[40]=4
y[41]=4
